c This is a CNF SAT formula in the DIMACS CNF format,
c produced with the bc2cnf translator by Tommi Junttila;
c see http://users.ics.aalto.fi/tjunttil/circuits/index.html
c O <-> 1
c S7 <-> 2
c S6 <-> 3
c S5 <-> 4
c S4 <-> 5
c S3 <-> 6
c S2 <-> 7
c S1 <-> 8
c S0RCA <-> 9
c S0 <-> 9
c C7 <-> 10
c C6 <-> 13
c C5 <-> 16
c C4 <-> 19
c C3 <-> 22
c C2 <-> 25
c C1 <-> 28
c S7RCA <-> 31
c B7 <-> 33
c A7 <-> 34
c C7RCA <-> 35
c S6RCA <-> 39
c B6 <-> 40
c A6 <-> 41
c C6RCA <-> 42
c S5RCA <-> 46
c B5 <-> 47
c A5 <-> 48
c C5RCA <-> 49
c S4RCA <-> 53
c B4 <-> 54
c A4 <-> 55
c C4RCA <-> 56
c S3RCA <-> 60
c B3 <-> 61
c A3 <-> 62
c C3RCA <-> 63
c S2RCA <-> 67
c B2 <-> 68
c A2 <-> 69
c C2RCA <-> 70
c S1RCA <-> 74
c B1 <-> 75
c A1 <-> 76
c C1RCA <-> 77
c Cin <-> 81
c B0 <-> 82
c A0 <-> 83
p cnf 83 230
1 31 -2 0
1 -31 2 0
-1 31 2 0
-1 -31 -2 0
1 0
2 32 -10 0
2 -32 10 0
-2 32 10 0
-2 -32 -10 0
3 13 -12 0
3 -13 12 0
-3 13 12 0
-3 -13 -12 0
4 16 -15 0
4 -16 15 0
-4 16 15 0
-4 -16 -15 0
5 19 -18 0
5 -19 18 0
-5 19 18 0
-5 -19 -18 0
6 22 -21 0
6 -22 21 0
-6 22 21 0
-6 -22 -21 0
7 25 -24 0
7 -25 24 0
-7 25 24 0
-7 -25 -24 0
8 28 -27 0
8 -28 27 0
-8 28 27 0
-8 -28 -27 0
9 81 -30 0
9 -81 30 0
-9 81 30 0
-9 -81 -30 0
10 -11 0
10 -36 0
-10 36 11 0
-11 12 0
-11 13 0
11 -13 -12 0
12 41 -40 0
12 -41 40 0
-12 41 40 0
-12 -41 -40 0
13 -14 0
13 -43 0
-13 43 14 0
-14 15 0
-14 16 0
14 -16 -15 0
15 48 -47 0
15 -48 47 0
-15 48 47 0
-15 -48 -47 0
16 -17 0
16 -50 0
-16 50 17 0
-17 18 0
-17 19 0
17 -19 -18 0
18 55 -54 0
18 -55 54 0
-18 55 54 0
-18 -55 -54 0
19 -20 0
19 -57 0
-19 57 20 0
-20 21 0
-20 22 0
20 -22 -21 0
21 62 -61 0
21 -62 61 0
-21 62 61 0
-21 -62 -61 0
22 -23 0
22 -64 0
-22 64 23 0
-23 24 0
-23 25 0
23 -25 -24 0
24 69 -68 0
24 -69 68 0
-24 69 68 0
-24 -69 -68 0
25 -26 0
25 -71 0
-25 71 26 0
-26 27 0
-26 28 0
26 -28 -27 0
27 76 -75 0
27 -76 75 0
-27 76 75 0
-27 -76 -75 0
28 -29 0
28 -78 0
-28 78 29 0
-29 30 0
-29 81 0
29 -81 -30 0
30 83 -82 0
30 -83 82 0
-30 83 82 0
-30 -83 -82 0
31 35 -32 0
31 -35 32 0
-31 35 32 0
-31 -35 -32 0
32 34 -33 0
32 -34 33 0
-32 34 33 0
-32 -34 -33 0
35 -36 0
35 -37 0
35 -38 0
-35 38 37 36 0
-36 40 0
-36 41 0
36 -41 -40 0
-37 41 0
-37 42 0
37 -42 -41 0
-38 40 0
-38 42 0
38 -42 -40 0
39 42 -12 0
39 -42 12 0
-39 42 12 0
-39 -42 -12 0
42 -43 0
42 -44 0
42 -45 0
-42 45 44 43 0
-43 47 0
-43 48 0
43 -48 -47 0
-44 48 0
-44 49 0
44 -49 -48 0
-45 47 0
-45 49 0
45 -49 -47 0
46 49 -15 0
46 -49 15 0
-46 49 15 0
-46 -49 -15 0
49 -50 0
49 -51 0
49 -52 0
-49 52 51 50 0
-50 54 0
-50 55 0
50 -55 -54 0
-51 55 0
-51 56 0
51 -56 -55 0
-52 54 0
-52 56 0
52 -56 -54 0
53 56 -18 0
53 -56 18 0
-53 56 18 0
-53 -56 -18 0
56 -57 0
56 -58 0
56 -59 0
-56 59 58 57 0
-57 61 0
-57 62 0
57 -62 -61 0
-58 62 0
-58 63 0
58 -63 -62 0
-59 61 0
-59 63 0
59 -63 -61 0
60 63 -21 0
60 -63 21 0
-60 63 21 0
-60 -63 -21 0
63 -64 0
63 -65 0
63 -66 0
-63 66 65 64 0
-64 68 0
-64 69 0
64 -69 -68 0
-65 69 0
-65 70 0
65 -70 -69 0
-66 68 0
-66 70 0
66 -70 -68 0
67 70 -24 0
67 -70 24 0
-67 70 24 0
-67 -70 -24 0
70 -71 0
70 -72 0
70 -73 0
-70 73 72 71 0
-71 75 0
-71 76 0
71 -76 -75 0
-72 76 0
-72 77 0
72 -77 -76 0
-73 75 0
-73 77 0
73 -77 -75 0
74 77 -27 0
74 -77 27 0
-74 77 27 0
-74 -77 -27 0
77 -78 0
77 -79 0
77 -80 0
-77 80 79 78 0
-78 82 0
-78 83 0
78 -83 -82 0
-79 81 0
-79 83 0
79 -83 -81 0
-80 81 0
-80 82 0
80 -82 -81 0